20 965
525 7 504 7 362 7 209 9 25 11 818 15 624 21
525 7 504 7 362 7 209 9 25 11 818 15 624 21
528 7 504 7 413 7 254 9 80 11 923 15 770 20
525 7 482 7 358 7 166 12
525 7 445 7 286 10
525 7 479 7 356 7 109 9 965 11 699 15 550 22
525 7 505 7 381 7 219 9 28 11 852 15 669 21
525 7 482 7 365 7 115 9 943 13
525 7 482 7 365 7 115 9 943 13
525 7 482 7 394 7 212 9 29 11 822 15 623 21
525 7 482 7 394 7 212 9 29 11 822 15 623 21
525 7 442 7 285 7 105 9 5 11 812 15 608 22
525 7 444 7 298 7 61 9 876 13
535 8 492 8 398 9 231 10 69 14 902 35
533 7
533 7
533 7
533 7
533 7
533 7
